(declare-fun T_1 () Bool)
(declare-fun T_10 () Bool)
(declare-fun T_11 () Bool)
(declare-fun T_12 () Bool)
(declare-fun T_13 () Bool)
(declare-fun T_14 () Bool)
(declare-fun T_15 () Bool)
(declare-fun T_16 () Bool)
(declare-fun T_17 () Bool)
(declare-fun T_18 () Bool)
(declare-fun T_19 () Bool)
(declare-fun T_1a () Bool)
(declare-fun T_1b () Bool)
(declare-fun T_1c () Bool)
(declare-fun T_1d () Bool)
(declare-fun T_1e () Bool)
(declare-fun T_1f () Bool)
(declare-fun T_2 () Bool)
(declare-fun T_20 () Bool)
(declare-fun T_21 () Bool)
(declare-fun T_22 () Bool)
(declare-fun T_23 () Bool)
(declare-fun T_24 () Bool)
(declare-fun T_25 () Bool)
(declare-fun T_26 () Bool)
(declare-fun T_27 () Bool)
(declare-fun T_28 () Bool)
(declare-fun T_29 () Bool)
(declare-fun T_2a () Bool)
(declare-fun T_2b () Bool)
(declare-fun T_3 () Bool)
(declare-fun T_4 () Bool)
(declare-fun T_5 () Bool)
(declare-fun T_6 () Bool)
(declare-fun T_7 () Bool)
(declare-fun T_8 () Bool)
(declare-fun T_9 () Bool)
(declare-fun T_a () Bool)
(declare-fun T_b () Bool)
(declare-fun T_c () Bool)
(declare-fun T_d () Bool)
(declare-fun T_e () Bool)
(declare-fun T_f () Bool)
(declare-fun var_0xINPUT_222145 () String)
(assert (= T_1 (not (= "" var_0xINPUT_222145))))
(assert T_1)
(assert (= T_2 (not (= "" var_0xINPUT_222145))))
(assert T_2)
(assert (= T_3 (not (= "" var_0xINPUT_222145))))
(assert T_3)
(assert (= T_4 (not (= var_0xINPUT_222145 ""))))
(assert T_4)
(assert (= T_5 (= var_0xINPUT_222145 "")))
(assert (= T_6 (not T_5)))
(assert T_6)
(assert (= T_7 (not (= "" var_0xINPUT_222145))))
(assert T_7)
(assert (= T_8 (not (= var_0xINPUT_222145 "4PH2ujcENG"))))
(assert (= T_9 (not T_8)))
(assert T_9)
(assert (= T_a (not (= "4PH2ujcENG" var_0xINPUT_222145))))
(assert (= T_b (not T_a)))
(assert T_b)
(assert (= T_c (= var_0xINPUT_222145 "")))
(assert (= T_d (not T_c)))
(assert T_d)
(assert (= T_e (not (= "" var_0xINPUT_222145))))
(assert T_e)
(assert (= T_f (not (= "4PH2ujcENG" var_0xINPUT_222145))))
(assert (= T_10 (not T_f)))
(assert T_10)
(assert (= T_11 (not (= var_0xINPUT_222145 "4PH2ujcENG"))))
(assert (= T_12 (not T_11)))
(assert T_12)
(assert (= T_13 (= var_0xINPUT_222145 "")))
(assert (= T_14 (not T_13)))
(assert T_14)
(assert (= T_15 (not (= "" var_0xINPUT_222145))))
(assert T_15)
(assert (= T_16 (not (= "4PH2ujcENG" var_0xINPUT_222145))))
(assert (= T_17 (not T_16)))
(assert T_17)
(assert (= T_18 (not (= var_0xINPUT_222145 "4PH2ujcENG"))))
(assert (= T_19 (not T_18)))
(assert T_19)
(assert (= T_1a (= var_0xINPUT_222145 "")))
(assert (= T_1b (not T_1a)))
(assert T_1b)
(assert (= T_1c (not (= "" var_0xINPUT_222145))))
(assert T_1c)
(assert (= T_1d (not (= var_0xINPUT_222145 "4PH2ujcENG"))))
(assert (= T_1e (not T_1d)))
(assert T_1e)
(assert (= T_1f (not (= "4PH2ujcENG" var_0xINPUT_222145))))
(assert (= T_20 (not T_1f)))
(assert T_20)
(assert (= T_21 (= var_0xINPUT_222145 "")))
(assert (= T_22 (not T_21)))
(assert T_22)
(assert (= T_23 (not (= "" var_0xINPUT_222145))))
(assert T_23)
(assert (= T_24 (not (= var_0xINPUT_222145 "MEXdqBDMmF"))))
(assert T_24)
(assert (= T_25 (not (= "MEXdqBDMmF" var_0xINPUT_222145))))
(assert T_25)
(assert (= T_26 (= var_0xINPUT_222145 "")))
(assert (= T_27 (not T_26)))
(assert T_27)
(assert (= T_28 (not (= "" var_0xINPUT_222145))))
(assert T_28)
(assert (= T_29 (= var_0xINPUT_222145 "Example:")))
(assert (= T_2a (not T_29)))
(assert T_2a)
(assert (= T_2b (not (= var_0xINPUT_222145 "MEXdqBDMmF"))))
(assert T_2b)
(check-sat)
